Maximize
  - 3.752468813721 edge_0_1_0_4 - 4.940628283776 edge_0_3_0_6
   - 3.817219555884 edge_0_5_0_2 - 4.4230508349919 edge_0_5_0_6
   - 1.2008100410548 edge_0_6_0_3 - 1.3341706540435 edge_0_6_0_9
   - 4.1175291087624 edge_0_9_0_2 - 4.2607137330292 edge_0_10_0_5
   - 1.9491994363183 edge_0_12_0_2 - 4.193245028044799 edge_0_13_0_5
   - 0.3045858817201806 edge_1_2_4_7 - 0.5908352310768707 edge_1_3_4_6
   - 0.2135023391305982 edge_1_5_4_2 - 0.396345587297422 edge_1_6_4_9
   - 0.7901818993884454 edge_1_12_4_2 - 0.4941985493727237 edge_1_13_4_5
   - 0.5655416531270792 edge_2_1_7_4 - 0.6603165823112707 edge_2_4_7_1
   + 0.1542139755093182 edge_2_5_7_6 - 0.3916816927488493 edge_2_6_7_3
   + 0.4775689294669816 edge_3_1_6_4 + 2.799930881212486 edge_3_2_6_7
   + 0.6819236048022781 edge_3_4_6_1 + 2.682103670238607 edge_3_5_6_6
   + 1.045961438696646 edge_3_6_6_3 + 0.2079861335945681 edge_3_7_6_1
   + 0.4750426786572234 edge_3_8_6_7 - 0.1446817402517959 edge_3_9_6_2
   + 0.5436815251540681 edge_3_10_6_1 - 0.0507917586504291 edge_3_11_6_7
   - 0.5694417926157087 edge_3_12_6_2 - 0.4420876166288003 edge_4_6_1_3
   + 0.0991146407048333 edge_5_1_2_4 - 0.9169138465065229 edge_5_1_6_4
   - 0.1321691841841183 edge_5_2_6_7 - 0.1094587152377314 edge_5_3_6_6
   + 3.202909433899106 edge_5_4_6_1 + 0.0414423682813393 edge_5_6_2_9
   + 0.6224821928871505 edge_5_6_6_3 - 1.651321155226545 edge_5_9_6_2
   - 0.0930309199421961 edge_5_10_6_1 + 0.6379501549234848 edge_5_10_6_5
   + 0.1257485643951526 edge_5_11_6_7 - 0.7007640988541275 edge_5_12_2_2
   + 0.4393778681880803 edge_5_12_6_2 + 0.8273270361909724 edge_5_13_2_5
   + 0.331818496897009 edge_5_13_6_5 + 0.5906006594823187 edge_6_1_3_4
   - 0.4024275816572113 edge_6_1_9_4 + 0.2551845022054336 edge_6_2_3_7
   + 1.339167584285661 edge_6_3_3_6 + 1.010268765962576 edge_6_4_3_1
   + 1.20696631423276 edge_6_5_3_6 - 0.4268028543998248 edge_6_5_9_2
   + 0.4508466687602274 edge_6_7_3_1 + 0.3085939121807945 edge_6_8_3_7
   + 2.570175033269751 edge_6_9_3_2 - 0.0803171053947815 edge_6_10_3_1
   + 1.285298342128747 edge_6_10_3_5 + 0.0736420775736202 edge_6_11_3_7
   + 1.757048797708465 edge_6_12_3_2 - 0.0220724928704806 edge_6_12_9_2
   + 1.214379496461426 edge_6_13_3_5 - 0.00871253607877109 edge_6_13_9_5
   + 0.3946299372484918 edge_7_9_1_2 - 0.2310445373079017 edge_7_10_1_1
   - 0.481760910333681 edge_7_12_1_2 - 0.2293087757526004 edge_8_7_7_1
   - 0.7468982827419357 edge_8_12_7_2 + 1.722191257519081 edge_9_1_2_4
   - 0.1921425795806443 edge_9_2_2_7 + 1.119922837727791 edge_9_3_2_6
   - 0.6670669276907846 edge_9_4_2_1 + 0.686611064771513 edge_9_5_2_6
   + 0.4221209559282229 edge_9_6_2_3 + 2.875075017670403 edge_9_7_2_1
   + 2.883884733111959 edge_9_8_2_7 - 0.2964130741007824 edge_9_9_2_2
   + 0.0457292098036356 edge_9_10_2_1 + 0.506781053445856 edge_9_11_2_7
   + 2.397132191724487 edge_9_12_2_2 - 0.1179990709958347 edge_10_1_1_4
   - 0.4727051208242367 edge_10_5_5_6 - 0.0696458831613093 edge_10_6_5_3
   + 0.2723951029445101 edge_10_11_1_7 - 0.4908819465333921 edge_10_12_5_2
   - 0.703304475630649 edge_10_13_5_5 - 0.6932716513603626 edge_11_6_7_3
   - 0.1000916747582277 edge_11_10_7_1 - 0.9306725611502931 edge_11_13_7_5
   - 0.785081194398634 edge_12_1_2_4 - 0.1969540255860376 edge_12_5_2_2
   + 0.0928572283381206 edge_12_5_2_6 - 0.2559377217653819 edge_12_6_2_3
   + 0.16504068164739 edge_12_6_2_9 + 0.7045603431982937 edge_12_7_2_1
   + 0.430471891911848 edge_12_8_2_7 + 0.2416951048401172 edge_12_9_2_2
   + 1.573976242757083 edge_12_10_2_1 - 0.217498543704947 edge_12_10_2_5
   + 3.454206648079917 edge_12_11_2_7 + 1.37623448616136 edge_12_13_2_5
   - 0.2807737237465543 edge_13_6_5_9 - 0.7146770303539866 edge_13_12_5_2
Subject To
 one_parent_1: edge_0_1_0_4 + edge_2_1_7_4 + edge_3_1_6_4 + edge_5_1_2_4
   + edge_5_1_6_4 + edge_6_1_3_4 + edge_6_1_9_4 + edge_9_1_2_4
   + edge_10_1_1_4 + edge_12_1_2_4 = 1
 one_pos_1: pos_1_4 = 1
 consume_one_flow_unit_1: flow_0_1_0_4 - flow_1_2_4_7 - flow_1_3_4_6
   - flow_1_5_4_2 - flow_1_6_4_9 - flow_1_12_4_2 - flow_1_13_4_5
   + flow_2_1_7_4 + flow_3_1_6_4 + flow_5_1_2_4 + flow_5_1_6_4
   + flow_6_1_3_4 + flow_6_1_9_4 + flow_9_1_2_4 + flow_10_1_1_4
   + flow_12_1_2_4 = 1
 one_parent_2: edge_1_2_4_7 + edge_3_2_6_7 + edge_5_2_6_7 + edge_6_2_3_7
   + edge_9_2_2_7 = 1
 one_pos_2: pos_2_7 = 1
 consume_one_flow_unit_2: flow_1_2_4_7 - flow_2_1_7_4 - flow_2_4_7_1
   - flow_2_5_7_6 - flow_2_6_7_3 + flow_3_2_6_7 + flow_5_2_6_7
   + flow_6_2_3_7 + flow_9_2_2_7 = 1
 one_parent_3: edge_0_3_0_6 + edge_1_3_4_6 + edge_5_3_6_6 + edge_6_3_3_6
   + edge_9_3_2_6 = 1
 one_pos_3: pos_3_6 = 1
 consume_one_flow_unit_3: flow_0_3_0_6 + flow_1_3_4_6 - flow_3_1_6_4
   - flow_3_2_6_7 - flow_3_4_6_1 - flow_3_5_6_6 - flow_3_6_6_3
   - flow_3_7_6_1 - flow_3_8_6_7 - flow_3_9_6_2 - flow_3_10_6_1
   - flow_3_11_6_7 - flow_3_12_6_2 + flow_5_3_6_6 + flow_6_3_3_6
   + flow_9_3_2_6 = 1
 one_parent_4: edge_2_4_7_1 + edge_3_4_6_1 + edge_5_4_6_1 + edge_6_4_3_1
   + edge_9_4_2_1 = 1
 one_pos_4: pos_4_1 = 1
 consume_one_flow_unit_4: flow_2_4_7_1 + flow_3_4_6_1 - flow_4_6_1_3
   + flow_5_4_6_1 + flow_6_4_3_1 + flow_9_4_2_1 = 1
 one_parent_5: edge_0_5_0_2 + edge_0_5_0_6 + edge_1_5_4_2 + edge_2_5_7_6
   + edge_3_5_6_6 + edge_6_5_3_6 + edge_6_5_9_2 + edge_9_5_2_6
   + edge_10_5_5_6 + edge_12_5_2_2 + edge_12_5_2_6 = 1
 one_pos_5: pos_5_2 + pos_5_6 = 1
 consume_one_flow_unit_5: flow_0_5_0_2 + flow_0_5_0_6 + flow_1_5_4_2
   + flow_2_5_7_6 + flow_3_5_6_6 - flow_5_1_2_4 - flow_5_1_6_4
   - flow_5_2_6_7 - flow_5_3_6_6 - flow_5_4_6_1 - flow_5_6_2_9
   - flow_5_6_6_3 - flow_5_9_6_2 - flow_5_10_6_1 - flow_5_10_6_5
   - flow_5_11_6_7 - flow_5_12_2_2 - flow_5_12_6_2 - flow_5_13_2_5
   - flow_5_13_6_5 + flow_6_5_3_6 + flow_6_5_9_2 + flow_9_5_2_6
   + flow_10_5_5_6 + flow_12_5_2_2 + flow_12_5_2_6 = 1
 one_parent_6: edge_0_6_0_3 + edge_0_6_0_9 + edge_1_6_4_9 + edge_2_6_7_3
   + edge_3_6_6_3 + edge_4_6_1_3 + edge_5_6_2_9 + edge_5_6_6_3
   + edge_9_6_2_3 + edge_10_6_5_3 + edge_11_6_7_3 + edge_12_6_2_3
   + edge_12_6_2_9 + edge_13_6_5_9 = 1
 one_pos_6: pos_6_9 + pos_6_3 = 1
 consume_one_flow_unit_6: flow_0_6_0_3 + flow_0_6_0_9 + flow_1_6_4_9
   + flow_2_6_7_3 + flow_3_6_6_3 + flow_4_6_1_3 + flow_5_6_2_9
   + flow_5_6_6_3 - flow_6_1_3_4 - flow_6_1_9_4 - flow_6_2_3_7
   - flow_6_3_3_6 - flow_6_4_3_1 - flow_6_5_3_6 - flow_6_5_9_2
   - flow_6_7_3_1 - flow_6_8_3_7 - flow_6_9_3_2 - flow_6_10_3_1
   - flow_6_10_3_5 - flow_6_11_3_7 - flow_6_12_3_2 - flow_6_12_9_2
   - flow_6_13_3_5 - flow_6_13_9_5 + flow_9_6_2_3 + flow_10_6_5_3
   + flow_11_6_7_3 + flow_12_6_2_3 + flow_12_6_2_9 + flow_13_6_5_9 = 1
 one_parent_7: edge_3_7_6_1 + edge_6_7_3_1 + edge_8_7_7_1 + edge_9_7_2_1
   + edge_12_7_2_1 = 1
 one_pos_7: pos_7_1 = 1
 consume_one_flow_unit_7: flow_3_7_6_1 + flow_6_7_3_1 - flow_7_9_1_2
   - flow_7_10_1_1 - flow_7_12_1_2 + flow_8_7_7_1 + flow_9_7_2_1
   + flow_12_7_2_1 = 1
 one_parent_8: edge_3_8_6_7 + edge_6_8_3_7 + edge_9_8_2_7 + edge_12_8_2_7
   = 1
 one_pos_8: pos_8_7 = 1
 consume_one_flow_unit_8: flow_3_8_6_7 + flow_6_8_3_7 - flow_8_7_7_1
   - flow_8_12_7_2 + flow_9_8_2_7 + flow_12_8_2_7 = 1
 one_parent_9: edge_0_9_0_2 + edge_3_9_6_2 + edge_5_9_6_2 + edge_6_9_3_2
   + edge_7_9_1_2 + edge_9_9_2_2 + edge_12_9_2_2 = 1
 one_pos_9: pos_9_2 = 1
 consume_one_flow_unit_9: flow_0_9_0_2 + flow_3_9_6_2 + flow_5_9_6_2
   + flow_6_9_3_2 + flow_7_9_1_2 - flow_9_1_2_4 - flow_9_2_2_7
   - flow_9_3_2_6 - flow_9_4_2_1 - flow_9_5_2_6 - flow_9_6_2_3
   - flow_9_7_2_1 - flow_9_8_2_7 - flow_9_10_2_1 - flow_9_11_2_7
   - flow_9_12_2_2 + flow_12_9_2_2 = 1
 one_parent_10: edge_0_10_0_5 + edge_3_10_6_1 + edge_5_10_6_1
   + edge_5_10_6_5 + edge_6_10_3_1 + edge_6_10_3_5 + edge_7_10_1_1
   + edge_9_10_2_1 + edge_11_10_7_1 + edge_12_10_2_1 + edge_12_10_2_5 = 1
 one_pos_10: pos_10_1 + pos_10_5 = 1
 consume_one_flow_unit_10: flow_0_10_0_5 + flow_3_10_6_1 + flow_5_10_6_1
   + flow_5_10_6_5 + flow_6_10_3_1 + flow_6_10_3_5 + flow_7_10_1_1
   + flow_9_10_2_1 - flow_10_1_1_4 - flow_10_5_5_6 - flow_10_6_5_3
   - flow_10_11_1_7 - flow_10_12_5_2 - flow_10_13_5_5 + flow_11_10_7_1
   + flow_12_10_2_1 + flow_12_10_2_5 = 1
 one_parent_11: edge_3_11_6_7 + edge_5_11_6_7 + edge_6_11_3_7
   + edge_9_11_2_7 + edge_10_11_1_7 + edge_12_11_2_7 = 1
 one_pos_11: pos_11_7 = 1
 consume_one_flow_unit_11: flow_3_11_6_7 + flow_5_11_6_7 + flow_6_11_3_7
   + flow_9_11_2_7 + flow_10_11_1_7 - flow_11_6_7_3 - flow_11_10_7_1
   - flow_11_13_7_5 + flow_12_11_2_7 = 1
 one_parent_12: edge_0_12_0_2 + edge_1_12_4_2 + edge_3_12_6_2
   + edge_5_12_2_2 + edge_5_12_6_2 + edge_6_12_3_2 + edge_6_12_9_2
   + edge_7_12_1_2 + edge_8_12_7_2 + edge_9_12_2_2 + edge_10_12_5_2
   + edge_13_12_5_2 = 1
 one_pos_12: pos_12_2 = 1
 consume_one_flow_unit_12: flow_0_12_0_2 + flow_1_12_4_2 + flow_3_12_6_2
   + flow_5_12_2_2 + flow_5_12_6_2 + flow_6_12_3_2 + flow_6_12_9_2
   + flow_7_12_1_2 + flow_8_12_7_2 + flow_9_12_2_2 + flow_10_12_5_2
   - flow_12_1_2_4 - flow_12_5_2_2 - flow_12_5_2_6 - flow_12_6_2_3
   - flow_12_6_2_9 - flow_12_7_2_1 - flow_12_8_2_7 - flow_12_9_2_2
   - flow_12_10_2_1 - flow_12_10_2_5 - flow_12_11_2_7 - flow_12_13_2_5
   + flow_13_12_5_2 = 1
 one_parent_13: edge_0_13_0_5 + edge_1_13_4_5 + edge_5_13_2_5
   + edge_5_13_6_5 + edge_6_13_3_5 + edge_6_13_9_5 + edge_10_13_5_5
   + edge_11_13_7_5 + edge_12_13_2_5 = 1
 one_pos_13: pos_13_5 = 1
 consume_one_flow_unit_13: flow_0_13_0_5 + flow_1_13_4_5 + flow_5_13_2_5
   + flow_5_13_6_5 + flow_6_13_3_5 + flow_6_13_9_5 + flow_10_13_5_5
   + flow_11_13_7_5 + flow_12_13_2_5 - flow_13_6_5_9 - flow_13_12_5_2 = 1
 root_flow: flow_0_1_0_4 + flow_0_3_0_6 + flow_0_5_0_2 + flow_0_5_0_6
   + flow_0_6_0_3 + flow_0_6_0_9 + flow_0_9_0_2 + flow_0_10_0_5
   + flow_0_12_0_2 + flow_0_13_0_5 = 13
 inactive_no_flow_0_1_0_4: flow_0_1_0_4 - 1000 edge_0_1_0_4 <= 0
 inactive_no_flow_0_3_0_6: flow_0_3_0_6 - 1000 edge_0_3_0_6 <= 0
 inactive_no_flow_0_5_0_2: flow_0_5_0_2 - 1000 edge_0_5_0_2 <= 0
 inactive_no_flow_0_5_0_6: flow_0_5_0_6 - 1000 edge_0_5_0_6 <= 0
 inactive_no_flow_0_6_0_3: flow_0_6_0_3 - 1000 edge_0_6_0_3 <= 0
 inactive_no_flow_0_6_0_9: flow_0_6_0_9 - 1000 edge_0_6_0_9 <= 0
 inactive_no_flow_0_9_0_2: flow_0_9_0_2 - 1000 edge_0_9_0_2 <= 0
 inactive_no_flow_0_10_0_5: flow_0_10_0_5 - 1000 edge_0_10_0_5 <= 0
 inactive_no_flow_0_12_0_2: flow_0_12_0_2 - 1000 edge_0_12_0_2 <= 0
 inactive_no_flow_0_13_0_5: flow_0_13_0_5 - 1000 edge_0_13_0_5 <= 0
 inactive_no_flow_1_2_4_7: flow_1_2_4_7 - 1000 edge_1_2_4_7 <= 0
 inactive_no_flow_1_3_4_6: flow_1_3_4_6 - 1000 edge_1_3_4_6 <= 0
 inactive_no_flow_1_5_4_2: flow_1_5_4_2 - 1000 edge_1_5_4_2 <= 0
 inactive_no_flow_1_6_4_9: flow_1_6_4_9 - 1000 edge_1_6_4_9 <= 0
 inactive_no_flow_1_12_4_2: flow_1_12_4_2 - 1000 edge_1_12_4_2 <= 0
 inactive_no_flow_1_13_4_5: flow_1_13_4_5 - 1000 edge_1_13_4_5 <= 0
 inactive_no_flow_2_1_7_4: flow_2_1_7_4 - 1000 edge_2_1_7_4 <= 0
 inactive_no_flow_2_4_7_1: flow_2_4_7_1 - 1000 edge_2_4_7_1 <= 0
 inactive_no_flow_2_5_7_6: flow_2_5_7_6 - 1000 edge_2_5_7_6 <= 0
 inactive_no_flow_2_6_7_3: flow_2_6_7_3 - 1000 edge_2_6_7_3 <= 0
 inactive_no_flow_3_1_6_4: flow_3_1_6_4 - 1000 edge_3_1_6_4 <= 0
 inactive_no_flow_3_2_6_7: flow_3_2_6_7 - 1000 edge_3_2_6_7 <= 0
 inactive_no_flow_3_4_6_1: flow_3_4_6_1 - 1000 edge_3_4_6_1 <= 0
 inactive_no_flow_3_5_6_6: flow_3_5_6_6 - 1000 edge_3_5_6_6 <= 0
 inactive_no_flow_3_6_6_3: flow_3_6_6_3 - 1000 edge_3_6_6_3 <= 0
 inactive_no_flow_3_7_6_1: flow_3_7_6_1 - 1000 edge_3_7_6_1 <= 0
 inactive_no_flow_3_8_6_7: flow_3_8_6_7 - 1000 edge_3_8_6_7 <= 0
 inactive_no_flow_3_9_6_2: flow_3_9_6_2 - 1000 edge_3_9_6_2 <= 0
 inactive_no_flow_3_10_6_1: flow_3_10_6_1 - 1000 edge_3_10_6_1 <= 0
 inactive_no_flow_3_11_6_7: flow_3_11_6_7 - 1000 edge_3_11_6_7 <= 0
 inactive_no_flow_3_12_6_2: flow_3_12_6_2 - 1000 edge_3_12_6_2 <= 0
 inactive_no_flow_4_6_1_3: flow_4_6_1_3 - 1000 edge_4_6_1_3 <= 0
 inactive_no_flow_5_1_2_4: flow_5_1_2_4 - 1000 edge_5_1_2_4 <= 0
 inactive_no_flow_5_1_6_4: flow_5_1_6_4 - 1000 edge_5_1_6_4 <= 0
 inactive_no_flow_5_2_6_7: flow_5_2_6_7 - 1000 edge_5_2_6_7 <= 0
 inactive_no_flow_5_3_6_6: flow_5_3_6_6 - 1000 edge_5_3_6_6 <= 0
 inactive_no_flow_5_4_6_1: flow_5_4_6_1 - 1000 edge_5_4_6_1 <= 0
 inactive_no_flow_5_6_2_9: flow_5_6_2_9 - 1000 edge_5_6_2_9 <= 0
 inactive_no_flow_5_6_6_3: flow_5_6_6_3 - 1000 edge_5_6_6_3 <= 0
 inactive_no_flow_5_9_6_2: flow_5_9_6_2 - 1000 edge_5_9_6_2 <= 0
 inactive_no_flow_5_10_6_1: flow_5_10_6_1 - 1000 edge_5_10_6_1 <= 0
 inactive_no_flow_5_10_6_5: flow_5_10_6_5 - 1000 edge_5_10_6_5 <= 0
 inactive_no_flow_5_11_6_7: flow_5_11_6_7 - 1000 edge_5_11_6_7 <= 0
 inactive_no_flow_5_12_2_2: flow_5_12_2_2 - 1000 edge_5_12_2_2 <= 0
 inactive_no_flow_5_12_6_2: flow_5_12_6_2 - 1000 edge_5_12_6_2 <= 0
 inactive_no_flow_5_13_2_5: flow_5_13_2_5 - 1000 edge_5_13_2_5 <= 0
 inactive_no_flow_5_13_6_5: flow_5_13_6_5 - 1000 edge_5_13_6_5 <= 0
 inactive_no_flow_6_1_3_4: flow_6_1_3_4 - 1000 edge_6_1_3_4 <= 0
 inactive_no_flow_6_1_9_4: flow_6_1_9_4 - 1000 edge_6_1_9_4 <= 0
 inactive_no_flow_6_2_3_7: flow_6_2_3_7 - 1000 edge_6_2_3_7 <= 0
 inactive_no_flow_6_3_3_6: flow_6_3_3_6 - 1000 edge_6_3_3_6 <= 0
 inactive_no_flow_6_4_3_1: flow_6_4_3_1 - 1000 edge_6_4_3_1 <= 0
 inactive_no_flow_6_5_3_6: flow_6_5_3_6 - 1000 edge_6_5_3_6 <= 0
 inactive_no_flow_6_5_9_2: flow_6_5_9_2 - 1000 edge_6_5_9_2 <= 0
 inactive_no_flow_6_7_3_1: flow_6_7_3_1 - 1000 edge_6_7_3_1 <= 0
 inactive_no_flow_6_8_3_7: flow_6_8_3_7 - 1000 edge_6_8_3_7 <= 0
 inactive_no_flow_6_9_3_2: flow_6_9_3_2 - 1000 edge_6_9_3_2 <= 0
 inactive_no_flow_6_10_3_1: flow_6_10_3_1 - 1000 edge_6_10_3_1 <= 0
 inactive_no_flow_6_10_3_5: flow_6_10_3_5 - 1000 edge_6_10_3_5 <= 0
 inactive_no_flow_6_11_3_7: flow_6_11_3_7 - 1000 edge_6_11_3_7 <= 0
 inactive_no_flow_6_12_3_2: flow_6_12_3_2 - 1000 edge_6_12_3_2 <= 0
 inactive_no_flow_6_12_9_2: flow_6_12_9_2 - 1000 edge_6_12_9_2 <= 0
 inactive_no_flow_6_13_3_5: flow_6_13_3_5 - 1000 edge_6_13_3_5 <= 0
 inactive_no_flow_6_13_9_5: flow_6_13_9_5 - 1000 edge_6_13_9_5 <= 0
 inactive_no_flow_7_9_1_2: flow_7_9_1_2 - 1000 edge_7_9_1_2 <= 0
 inactive_no_flow_7_10_1_1: flow_7_10_1_1 - 1000 edge_7_10_1_1 <= 0
 inactive_no_flow_7_12_1_2: flow_7_12_1_2 - 1000 edge_7_12_1_2 <= 0
 inactive_no_flow_8_7_7_1: flow_8_7_7_1 - 1000 edge_8_7_7_1 <= 0
 inactive_no_flow_8_12_7_2: flow_8_12_7_2 - 1000 edge_8_12_7_2 <= 0
 inactive_no_flow_9_1_2_4: flow_9_1_2_4 - 1000 edge_9_1_2_4 <= 0
 inactive_no_flow_9_2_2_7: flow_9_2_2_7 - 1000 edge_9_2_2_7 <= 0
 inactive_no_flow_9_3_2_6: flow_9_3_2_6 - 1000 edge_9_3_2_6 <= 0
 inactive_no_flow_9_4_2_1: flow_9_4_2_1 - 1000 edge_9_4_2_1 <= 0
 inactive_no_flow_9_5_2_6: flow_9_5_2_6 - 1000 edge_9_5_2_6 <= 0
 inactive_no_flow_9_6_2_3: flow_9_6_2_3 - 1000 edge_9_6_2_3 <= 0
 inactive_no_flow_9_7_2_1: flow_9_7_2_1 - 1000 edge_9_7_2_1 <= 0
 inactive_no_flow_9_8_2_7: flow_9_8_2_7 - 1000 edge_9_8_2_7 <= 0
 inactive_no_flow_9_9_2_2: flow_9_9_2_2 - 1000 edge_9_9_2_2 <= 0
 inactive_no_flow_9_10_2_1: flow_9_10_2_1 - 1000 edge_9_10_2_1 <= 0
 inactive_no_flow_9_11_2_7: flow_9_11_2_7 - 1000 edge_9_11_2_7 <= 0
 inactive_no_flow_9_12_2_2: flow_9_12_2_2 - 1000 edge_9_12_2_2 <= 0
 inactive_no_flow_10_1_1_4: flow_10_1_1_4 - 1000 edge_10_1_1_4 <= 0
 inactive_no_flow_10_5_5_6: flow_10_5_5_6 - 1000 edge_10_5_5_6 <= 0
 inactive_no_flow_10_6_5_3: flow_10_6_5_3 - 1000 edge_10_6_5_3 <= 0
 inactive_no_flow_10_11_1_7: flow_10_11_1_7 - 1000 edge_10_11_1_7 <= 0
 inactive_no_flow_10_12_5_2: flow_10_12_5_2 - 1000 edge_10_12_5_2 <= 0
 inactive_no_flow_10_13_5_5: flow_10_13_5_5 - 1000 edge_10_13_5_5 <= 0
 inactive_no_flow_11_6_7_3: flow_11_6_7_3 - 1000 edge_11_6_7_3 <= 0
 inactive_no_flow_11_10_7_1: flow_11_10_7_1 - 1000 edge_11_10_7_1 <= 0
 inactive_no_flow_11_13_7_5: flow_11_13_7_5 - 1000 edge_11_13_7_5 <= 0
 inactive_no_flow_12_1_2_4: flow_12_1_2_4 - 1000 edge_12_1_2_4 <= 0
 inactive_no_flow_12_5_2_2: flow_12_5_2_2 - 1000 edge_12_5_2_2 <= 0
 inactive_no_flow_12_5_2_6: flow_12_5_2_6 - 1000 edge_12_5_2_6 <= 0
 inactive_no_flow_12_6_2_3: flow_12_6_2_3 - 1000 edge_12_6_2_3 <= 0
 inactive_no_flow_12_6_2_9: flow_12_6_2_9 - 1000 edge_12_6_2_9 <= 0
 inactive_no_flow_12_7_2_1: flow_12_7_2_1 - 1000 edge_12_7_2_1 <= 0
 inactive_no_flow_12_8_2_7: flow_12_8_2_7 - 1000 edge_12_8_2_7 <= 0
 inactive_no_flow_12_9_2_2: flow_12_9_2_2 - 1000 edge_12_9_2_2 <= 0
 inactive_no_flow_12_10_2_1: flow_12_10_2_1 - 1000 edge_12_10_2_1 <= 0
 inactive_no_flow_12_10_2_5: flow_12_10_2_5 - 1000 edge_12_10_2_5 <= 0
 inactive_no_flow_12_11_2_7: flow_12_11_2_7 - 1000 edge_12_11_2_7 <= 0
 inactive_no_flow_12_13_2_5: flow_12_13_2_5 - 1000 edge_12_13_2_5 <= 0
 inactive_no_flow_13_6_5_9: flow_13_6_5_9 - 1000 edge_13_6_5_9 <= 0
 inactive_no_flow_13_12_5_2: flow_13_12_5_2 - 1000 edge_13_12_5_2 <= 0
 arc_0_1_0_4_pos_must_match_v: - edge_0_1_0_4 + pos_1_4 >= 0
 arc_0_3_0_6_pos_must_match_v: - edge_0_3_0_6 + pos_3_6 >= 0
 arc_0_5_0_2_pos_must_match_v: - edge_0_5_0_2 + pos_5_2 >= 0
 arc_0_5_0_6_pos_must_match_v: - edge_0_5_0_6 + pos_5_6 >= 0
 arc_0_6_0_3_pos_must_match_v: - edge_0_6_0_3 + pos_6_3 >= 0
 arc_0_6_0_9_pos_must_match_v: - edge_0_6_0_9 + pos_6_9 >= 0
 arc_0_9_0_2_pos_must_match_v: - edge_0_9_0_2 + pos_9_2 >= 0
 arc_0_10_0_5_pos_must_match_v: - edge_0_10_0_5 + pos_10_5 >= 0
 arc_0_12_0_2_pos_must_match_v: - edge_0_12_0_2 + pos_12_2 >= 0
 arc_0_13_0_5_pos_must_match_v: - edge_0_13_0_5 + pos_13_5 >= 0
 arc_1_2_4_7_pos_must_match_u: - edge_1_2_4_7 + pos_1_4 >= 0
 arc_1_2_4_7_pos_must_match_v: - edge_1_2_4_7 + pos_2_7 >= 0
 arc_1_3_4_6_pos_must_match_u: - edge_1_3_4_6 + pos_1_4 >= 0
 arc_1_3_4_6_pos_must_match_v: - edge_1_3_4_6 + pos_3_6 >= 0
 arc_1_5_4_2_pos_must_match_u: - edge_1_5_4_2 + pos_1_4 >= 0
 arc_1_5_4_2_pos_must_match_v: - edge_1_5_4_2 + pos_5_2 >= 0
 arc_1_6_4_9_pos_must_match_u: - edge_1_6_4_9 + pos_1_4 >= 0
 arc_1_6_4_9_pos_must_match_v: - edge_1_6_4_9 + pos_6_9 >= 0
 arc_1_12_4_2_pos_must_match_u: - edge_1_12_4_2 + pos_1_4 >= 0
 arc_1_12_4_2_pos_must_match_v: - edge_1_12_4_2 + pos_12_2 >= 0
 arc_1_13_4_5_pos_must_match_u: - edge_1_13_4_5 + pos_1_4 >= 0
 arc_1_13_4_5_pos_must_match_v: - edge_1_13_4_5 + pos_13_5 >= 0
 arc_2_1_7_4_pos_must_match_u: - edge_2_1_7_4 + pos_2_7 >= 0
 arc_2_1_7_4_pos_must_match_v: - edge_2_1_7_4 + pos_1_4 >= 0
 arc_2_4_7_1_pos_must_match_u: - edge_2_4_7_1 + pos_2_7 >= 0
 arc_2_4_7_1_pos_must_match_v: - edge_2_4_7_1 + pos_4_1 >= 0
 arc_2_5_7_6_pos_must_match_u: - edge_2_5_7_6 + pos_2_7 >= 0
 arc_2_5_7_6_pos_must_match_v: - edge_2_5_7_6 + pos_5_6 >= 0
 arc_2_6_7_3_pos_must_match_u: - edge_2_6_7_3 + pos_2_7 >= 0
 arc_2_6_7_3_pos_must_match_v: - edge_2_6_7_3 + pos_6_3 >= 0
 arc_3_1_6_4_pos_must_match_u: - edge_3_1_6_4 + pos_3_6 >= 0
 arc_3_1_6_4_pos_must_match_v: - edge_3_1_6_4 + pos_1_4 >= 0
 arc_3_2_6_7_pos_must_match_u: - edge_3_2_6_7 + pos_3_6 >= 0
 arc_3_2_6_7_pos_must_match_v: - edge_3_2_6_7 + pos_2_7 >= 0
 arc_3_4_6_1_pos_must_match_u: - edge_3_4_6_1 + pos_3_6 >= 0
 arc_3_4_6_1_pos_must_match_v: - edge_3_4_6_1 + pos_4_1 >= 0
 arc_3_5_6_6_pos_must_match_u: - edge_3_5_6_6 + pos_3_6 >= 0
 arc_3_5_6_6_pos_must_match_v: - edge_3_5_6_6 + pos_5_6 >= 0
 arc_3_6_6_3_pos_must_match_u: - edge_3_6_6_3 + pos_3_6 >= 0
 arc_3_6_6_3_pos_must_match_v: - edge_3_6_6_3 + pos_6_3 >= 0
 arc_3_7_6_1_pos_must_match_u: - edge_3_7_6_1 + pos_3_6 >= 0
 arc_3_7_6_1_pos_must_match_v: - edge_3_7_6_1 + pos_7_1 >= 0
 arc_3_8_6_7_pos_must_match_u: - edge_3_8_6_7 + pos_3_6 >= 0
 arc_3_8_6_7_pos_must_match_v: - edge_3_8_6_7 + pos_8_7 >= 0
 arc_3_9_6_2_pos_must_match_u: - edge_3_9_6_2 + pos_3_6 >= 0
 arc_3_9_6_2_pos_must_match_v: - edge_3_9_6_2 + pos_9_2 >= 0
 arc_3_10_6_1_pos_must_match_u: - edge_3_10_6_1 + pos_3_6 >= 0
 arc_3_10_6_1_pos_must_match_v: - edge_3_10_6_1 + pos_10_1 >= 0
 arc_3_11_6_7_pos_must_match_u: - edge_3_11_6_7 + pos_3_6 >= 0
 arc_3_11_6_7_pos_must_match_v: - edge_3_11_6_7 + pos_11_7 >= 0
 arc_3_12_6_2_pos_must_match_u: - edge_3_12_6_2 + pos_3_6 >= 0
 arc_3_12_6_2_pos_must_match_v: - edge_3_12_6_2 + pos_12_2 >= 0
 arc_4_6_1_3_pos_must_match_u: - edge_4_6_1_3 + pos_4_1 >= 0
 arc_4_6_1_3_pos_must_match_v: - edge_4_6_1_3 + pos_6_3 >= 0
 arc_5_1_2_4_pos_must_match_u: - edge_5_1_2_4 + pos_5_2 >= 0
 arc_5_1_2_4_pos_must_match_v: - edge_5_1_2_4 + pos_1_4 >= 0
 arc_5_1_6_4_pos_must_match_u: - edge_5_1_6_4 + pos_5_6 >= 0
 arc_5_1_6_4_pos_must_match_v: - edge_5_1_6_4 + pos_1_4 >= 0
 arc_5_2_6_7_pos_must_match_u: - edge_5_2_6_7 + pos_5_6 >= 0
 arc_5_2_6_7_pos_must_match_v: - edge_5_2_6_7 + pos_2_7 >= 0
 arc_5_3_6_6_pos_must_match_u: - edge_5_3_6_6 + pos_5_6 >= 0
 arc_5_3_6_6_pos_must_match_v: - edge_5_3_6_6 + pos_3_6 >= 0
 arc_5_4_6_1_pos_must_match_u: - edge_5_4_6_1 + pos_5_6 >= 0
 arc_5_4_6_1_pos_must_match_v: - edge_5_4_6_1 + pos_4_1 >= 0
 arc_5_6_2_9_pos_must_match_u: - edge_5_6_2_9 + pos_5_2 >= 0
 arc_5_6_2_9_pos_must_match_v: - edge_5_6_2_9 + pos_6_9 >= 0
 arc_5_6_6_3_pos_must_match_u: - edge_5_6_6_3 + pos_5_6 >= 0
 arc_5_6_6_3_pos_must_match_v: - edge_5_6_6_3 + pos_6_3 >= 0
 arc_5_9_6_2_pos_must_match_u: - edge_5_9_6_2 + pos_5_6 >= 0
 arc_5_9_6_2_pos_must_match_v: - edge_5_9_6_2 + pos_9_2 >= 0
 arc_5_10_6_1_pos_must_match_u: - edge_5_10_6_1 + pos_5_6 >= 0
 arc_5_10_6_1_pos_must_match_v: - edge_5_10_6_1 + pos_10_1 >= 0
 arc_5_10_6_5_pos_must_match_u: - edge_5_10_6_5 + pos_5_6 >= 0
 arc_5_10_6_5_pos_must_match_v: - edge_5_10_6_5 + pos_10_5 >= 0
 arc_5_11_6_7_pos_must_match_u: - edge_5_11_6_7 + pos_5_6 >= 0
 arc_5_11_6_7_pos_must_match_v: - edge_5_11_6_7 + pos_11_7 >= 0
 arc_5_12_2_2_pos_must_match_u: - edge_5_12_2_2 + pos_5_2 >= 0
 arc_5_12_2_2_pos_must_match_v: - edge_5_12_2_2 + pos_12_2 >= 0
 arc_5_12_6_2_pos_must_match_u: - edge_5_12_6_2 + pos_5_6 >= 0
 arc_5_12_6_2_pos_must_match_v: - edge_5_12_6_2 + pos_12_2 >= 0
 arc_5_13_2_5_pos_must_match_u: - edge_5_13_2_5 + pos_5_2 >= 0
 arc_5_13_2_5_pos_must_match_v: - edge_5_13_2_5 + pos_13_5 >= 0
 arc_5_13_6_5_pos_must_match_u: - edge_5_13_6_5 + pos_5_6 >= 0
 arc_5_13_6_5_pos_must_match_v: - edge_5_13_6_5 + pos_13_5 >= 0
 arc_6_1_3_4_pos_must_match_u: - edge_6_1_3_4 + pos_6_3 >= 0
 arc_6_1_3_4_pos_must_match_v: - edge_6_1_3_4 + pos_1_4 >= 0
 arc_6_1_9_4_pos_must_match_u: - edge_6_1_9_4 + pos_6_9 >= 0
 arc_6_1_9_4_pos_must_match_v: - edge_6_1_9_4 + pos_1_4 >= 0
 arc_6_2_3_7_pos_must_match_u: - edge_6_2_3_7 + pos_6_3 >= 0
 arc_6_2_3_7_pos_must_match_v: - edge_6_2_3_7 + pos_2_7 >= 0
 arc_6_3_3_6_pos_must_match_u: - edge_6_3_3_6 + pos_6_3 >= 0
 arc_6_3_3_6_pos_must_match_v: - edge_6_3_3_6 + pos_3_6 >= 0
 arc_6_4_3_1_pos_must_match_u: - edge_6_4_3_1 + pos_6_3 >= 0
 arc_6_4_3_1_pos_must_match_v: - edge_6_4_3_1 + pos_4_1 >= 0
 arc_6_5_3_6_pos_must_match_u: - edge_6_5_3_6 + pos_6_3 >= 0
 arc_6_5_3_6_pos_must_match_v: - edge_6_5_3_6 + pos_5_6 >= 0
 arc_6_5_9_2_pos_must_match_u: - edge_6_5_9_2 + pos_6_9 >= 0
 arc_6_5_9_2_pos_must_match_v: - edge_6_5_9_2 + pos_5_2 >= 0
 arc_6_7_3_1_pos_must_match_u: - edge_6_7_3_1 + pos_6_3 >= 0
 arc_6_7_3_1_pos_must_match_v: - edge_6_7_3_1 + pos_7_1 >= 0
 arc_6_8_3_7_pos_must_match_u: - edge_6_8_3_7 + pos_6_3 >= 0
 arc_6_8_3_7_pos_must_match_v: - edge_6_8_3_7 + pos_8_7 >= 0
 arc_6_9_3_2_pos_must_match_u: - edge_6_9_3_2 + pos_6_3 >= 0
 arc_6_9_3_2_pos_must_match_v: - edge_6_9_3_2 + pos_9_2 >= 0
 arc_6_10_3_1_pos_must_match_u: - edge_6_10_3_1 + pos_6_3 >= 0
 arc_6_10_3_1_pos_must_match_v: - edge_6_10_3_1 + pos_10_1 >= 0
 arc_6_10_3_5_pos_must_match_u: - edge_6_10_3_5 + pos_6_3 >= 0
 arc_6_10_3_5_pos_must_match_v: - edge_6_10_3_5 + pos_10_5 >= 0
 arc_6_11_3_7_pos_must_match_u: - edge_6_11_3_7 + pos_6_3 >= 0
 arc_6_11_3_7_pos_must_match_v: - edge_6_11_3_7 + pos_11_7 >= 0
 arc_6_12_3_2_pos_must_match_u: - edge_6_12_3_2 + pos_6_3 >= 0
 arc_6_12_3_2_pos_must_match_v: - edge_6_12_3_2 + pos_12_2 >= 0
 arc_6_12_9_2_pos_must_match_u: - edge_6_12_9_2 + pos_6_9 >= 0
 arc_6_12_9_2_pos_must_match_v: - edge_6_12_9_2 + pos_12_2 >= 0
 arc_6_13_3_5_pos_must_match_u: - edge_6_13_3_5 + pos_6_3 >= 0
 arc_6_13_3_5_pos_must_match_v: - edge_6_13_3_5 + pos_13_5 >= 0
 arc_6_13_9_5_pos_must_match_u: - edge_6_13_9_5 + pos_6_9 >= 0
 arc_6_13_9_5_pos_must_match_v: - edge_6_13_9_5 + pos_13_5 >= 0
 arc_7_9_1_2_pos_must_match_u: - edge_7_9_1_2 + pos_7_1 >= 0
 arc_7_9_1_2_pos_must_match_v: - edge_7_9_1_2 + pos_9_2 >= 0
 arc_7_10_1_1_pos_must_match_u: - edge_7_10_1_1 + pos_7_1 >= 0
 arc_7_10_1_1_pos_must_match_v: - edge_7_10_1_1 + pos_10_1 >= 0
 arc_7_12_1_2_pos_must_match_u: - edge_7_12_1_2 + pos_7_1 >= 0
 arc_7_12_1_2_pos_must_match_v: - edge_7_12_1_2 + pos_12_2 >= 0
 arc_8_7_7_1_pos_must_match_u: - edge_8_7_7_1 + pos_8_7 >= 0
 arc_8_7_7_1_pos_must_match_v: - edge_8_7_7_1 + pos_7_1 >= 0
 arc_8_12_7_2_pos_must_match_u: - edge_8_12_7_2 + pos_8_7 >= 0
 arc_8_12_7_2_pos_must_match_v: - edge_8_12_7_2 + pos_12_2 >= 0
 arc_9_1_2_4_pos_must_match_u: - edge_9_1_2_4 + pos_9_2 >= 0
 arc_9_1_2_4_pos_must_match_v: - edge_9_1_2_4 + pos_1_4 >= 0
 arc_9_2_2_7_pos_must_match_u: - edge_9_2_2_7 + pos_9_2 >= 0
 arc_9_2_2_7_pos_must_match_v: - edge_9_2_2_7 + pos_2_7 >= 0
 arc_9_3_2_6_pos_must_match_u: - edge_9_3_2_6 + pos_9_2 >= 0
 arc_9_3_2_6_pos_must_match_v: - edge_9_3_2_6 + pos_3_6 >= 0
 arc_9_4_2_1_pos_must_match_u: - edge_9_4_2_1 + pos_9_2 >= 0
 arc_9_4_2_1_pos_must_match_v: - edge_9_4_2_1 + pos_4_1 >= 0
 arc_9_5_2_6_pos_must_match_u: - edge_9_5_2_6 + pos_9_2 >= 0
 arc_9_5_2_6_pos_must_match_v: - edge_9_5_2_6 + pos_5_6 >= 0
 arc_9_6_2_3_pos_must_match_u: - edge_9_6_2_3 + pos_9_2 >= 0
 arc_9_6_2_3_pos_must_match_v: - edge_9_6_2_3 + pos_6_3 >= 0
 arc_9_7_2_1_pos_must_match_u: - edge_9_7_2_1 + pos_9_2 >= 0
 arc_9_7_2_1_pos_must_match_v: - edge_9_7_2_1 + pos_7_1 >= 0
 arc_9_8_2_7_pos_must_match_u: - edge_9_8_2_7 + pos_9_2 >= 0
 arc_9_8_2_7_pos_must_match_v: - edge_9_8_2_7 + pos_8_7 >= 0
 arc_9_9_2_2_pos_must_match_u: - edge_9_9_2_2 + pos_9_2 >= 0
 arc_9_9_2_2_pos_must_match_v: - edge_9_9_2_2 + pos_9_2 >= 0
 arc_9_10_2_1_pos_must_match_u: - edge_9_10_2_1 + pos_9_2 >= 0
 arc_9_10_2_1_pos_must_match_v: - edge_9_10_2_1 + pos_10_1 >= 0
 arc_9_11_2_7_pos_must_match_u: - edge_9_11_2_7 + pos_9_2 >= 0
 arc_9_11_2_7_pos_must_match_v: - edge_9_11_2_7 + pos_11_7 >= 0
 arc_9_12_2_2_pos_must_match_u: - edge_9_12_2_2 + pos_9_2 >= 0
 arc_9_12_2_2_pos_must_match_v: - edge_9_12_2_2 + pos_12_2 >= 0
 arc_10_1_1_4_pos_must_match_u: - edge_10_1_1_4 + pos_10_1 >= 0
 arc_10_1_1_4_pos_must_match_v: - edge_10_1_1_4 + pos_1_4 >= 0
 arc_10_5_5_6_pos_must_match_u: - edge_10_5_5_6 + pos_10_5 >= 0
 arc_10_5_5_6_pos_must_match_v: - edge_10_5_5_6 + pos_5_6 >= 0
 arc_10_6_5_3_pos_must_match_u: - edge_10_6_5_3 + pos_10_5 >= 0
 arc_10_6_5_3_pos_must_match_v: - edge_10_6_5_3 + pos_6_3 >= 0
 arc_10_11_1_7_pos_must_match_u: - edge_10_11_1_7 + pos_10_1 >= 0
 arc_10_11_1_7_pos_must_match_v: - edge_10_11_1_7 + pos_11_7 >= 0
 arc_10_12_5_2_pos_must_match_u: - edge_10_12_5_2 + pos_10_5 >= 0
 arc_10_12_5_2_pos_must_match_v: - edge_10_12_5_2 + pos_12_2 >= 0
 arc_10_13_5_5_pos_must_match_u: - edge_10_13_5_5 + pos_10_5 >= 0
 arc_10_13_5_5_pos_must_match_v: - edge_10_13_5_5 + pos_13_5 >= 0
 arc_11_6_7_3_pos_must_match_u: - edge_11_6_7_3 + pos_11_7 >= 0
 arc_11_6_7_3_pos_must_match_v: - edge_11_6_7_3 + pos_6_3 >= 0
 arc_11_10_7_1_pos_must_match_u: - edge_11_10_7_1 + pos_11_7 >= 0
 arc_11_10_7_1_pos_must_match_v: - edge_11_10_7_1 + pos_10_1 >= 0
 arc_11_13_7_5_pos_must_match_u: - edge_11_13_7_5 + pos_11_7 >= 0
 arc_11_13_7_5_pos_must_match_v: - edge_11_13_7_5 + pos_13_5 >= 0
 arc_12_1_2_4_pos_must_match_u: - edge_12_1_2_4 + pos_12_2 >= 0
 arc_12_1_2_4_pos_must_match_v: - edge_12_1_2_4 + pos_1_4 >= 0
 arc_12_5_2_2_pos_must_match_u: - edge_12_5_2_2 + pos_12_2 >= 0
 arc_12_5_2_2_pos_must_match_v: - edge_12_5_2_2 + pos_5_2 >= 0
 arc_12_5_2_6_pos_must_match_u: - edge_12_5_2_6 + pos_12_2 >= 0
 arc_12_5_2_6_pos_must_match_v: - edge_12_5_2_6 + pos_5_6 >= 0
 arc_12_6_2_3_pos_must_match_u: - edge_12_6_2_3 + pos_12_2 >= 0
 arc_12_6_2_3_pos_must_match_v: - edge_12_6_2_3 + pos_6_3 >= 0
 arc_12_6_2_9_pos_must_match_u: - edge_12_6_2_9 + pos_12_2 >= 0
 arc_12_6_2_9_pos_must_match_v: - edge_12_6_2_9 + pos_6_9 >= 0
 arc_12_7_2_1_pos_must_match_u: - edge_12_7_2_1 + pos_12_2 >= 0
 arc_12_7_2_1_pos_must_match_v: - edge_12_7_2_1 + pos_7_1 >= 0
 arc_12_8_2_7_pos_must_match_u: - edge_12_8_2_7 + pos_12_2 >= 0
 arc_12_8_2_7_pos_must_match_v: - edge_12_8_2_7 + pos_8_7 >= 0
 arc_12_9_2_2_pos_must_match_u: - edge_12_9_2_2 + pos_12_2 >= 0
 arc_12_9_2_2_pos_must_match_v: - edge_12_9_2_2 + pos_9_2 >= 0
 arc_12_10_2_1_pos_must_match_u: - edge_12_10_2_1 + pos_12_2 >= 0
 arc_12_10_2_1_pos_must_match_v: - edge_12_10_2_1 + pos_10_1 >= 0
 arc_12_10_2_5_pos_must_match_u: - edge_12_10_2_5 + pos_12_2 >= 0
 arc_12_10_2_5_pos_must_match_v: - edge_12_10_2_5 + pos_10_5 >= 0
 arc_12_11_2_7_pos_must_match_u: - edge_12_11_2_7 + pos_12_2 >= 0
 arc_12_11_2_7_pos_must_match_v: - edge_12_11_2_7 + pos_11_7 >= 0
 arc_12_13_2_5_pos_must_match_u: - edge_12_13_2_5 + pos_12_2 >= 0
 arc_12_13_2_5_pos_must_match_v: - edge_12_13_2_5 + pos_13_5 >= 0
 arc_13_6_5_9_pos_must_match_u: - edge_13_6_5_9 + pos_13_5 >= 0
 arc_13_6_5_9_pos_must_match_v: - edge_13_6_5_9 + pos_6_9 >= 0
 arc_13_12_5_2_pos_must_match_u: - edge_13_12_5_2 + pos_13_5 >= 0
 arc_13_12_5_2_pos_must_match_v: - edge_13_12_5_2 + pos_12_2 >= 0
Bounds
Binaries
 edge_0_1_0_4 edge_0_3_0_6 edge_0_5_0_2 edge_0_5_0_6 edge_0_6_0_3
 edge_0_6_0_9 edge_0_9_0_2 edge_0_10_0_5 edge_0_12_0_2 edge_0_13_0_5
 edge_1_2_4_7 edge_1_3_4_6 edge_1_5_4_2 edge_1_6_4_9 edge_1_12_4_2
 edge_1_13_4_5 edge_2_1_7_4 edge_2_4_7_1 edge_2_5_7_6 edge_2_6_7_3
 edge_3_1_6_4 edge_3_2_6_7 edge_3_4_6_1 edge_3_5_6_6 edge_3_6_6_3
 edge_3_7_6_1 edge_3_8_6_7 edge_3_9_6_2 edge_3_10_6_1 edge_3_11_6_7
 edge_3_12_6_2 edge_4_6_1_3 edge_5_1_2_4 edge_5_1_6_4 edge_5_2_6_7
 edge_5_3_6_6 edge_5_4_6_1 edge_5_6_2_9 edge_5_6_6_3 edge_5_9_6_2
 edge_5_10_6_1 edge_5_10_6_5 edge_5_11_6_7 edge_5_12_2_2 edge_5_12_6_2
 edge_5_13_2_5 edge_5_13_6_5 edge_6_1_3_4 edge_6_1_9_4 edge_6_2_3_7
 edge_6_3_3_6 edge_6_4_3_1 edge_6_5_3_6 edge_6_5_9_2 edge_6_7_3_1
 edge_6_8_3_7 edge_6_9_3_2 edge_6_10_3_1 edge_6_10_3_5 edge_6_11_3_7
 edge_6_12_3_2 edge_6_12_9_2 edge_6_13_3_5 edge_6_13_9_5 edge_7_9_1_2
 edge_7_10_1_1 edge_7_12_1_2 edge_8_7_7_1 edge_8_12_7_2 edge_9_1_2_4
 edge_9_2_2_7 edge_9_3_2_6 edge_9_4_2_1 edge_9_5_2_6 edge_9_6_2_3
 edge_9_7_2_1 edge_9_8_2_7 edge_9_9_2_2 edge_9_10_2_1 edge_9_11_2_7
 edge_9_12_2_2 edge_10_1_1_4 edge_10_5_5_6 edge_10_6_5_3 edge_10_11_1_7
 edge_10_12_5_2 edge_10_13_5_5 edge_11_6_7_3 edge_11_10_7_1 edge_11_13_7_5
 edge_12_1_2_4 edge_12_5_2_2 edge_12_5_2_6 edge_12_6_2_3 edge_12_6_2_9
 edge_12_7_2_1 edge_12_8_2_7 edge_12_9_2_2 edge_12_10_2_1 edge_12_10_2_5
 edge_12_11_2_7 edge_12_13_2_5 edge_13_6_5_9 edge_13_12_5_2 pos_1_4 pos_2_7
 pos_3_6 pos_4_1 pos_5_2 pos_5_6 pos_6_9 pos_6_3 pos_7_1 pos_8_7 pos_9_2
 pos_10_1 pos_10_5 pos_11_7 pos_12_2 pos_13_5
End
